33D32945 STP File, STP Format Version 1.0

SECTION Comments
Name "shell_n10_d4_s1"
Problem "Euclidean Steiner Tree Problem"
Remark "Generated with STPGenerator. 4 dimensions."
END

SECTION Graph
Nodes 10
END

SECTION Coordinates
DDDD 0 -0.8434618182 0.2048443596 -0.0857900728 0.4891329196
DDDD 1 0.2993527543 0.4793132863 -0.7905526205 0.2359518091
DDDD 2 0.4146292265 -0.7508112417 0.5063323430 0.0894015785
DDDD 3 0.0549584571 0.5546479537 -0.2050209480 0.8045567888
DDDD 4 -0.6251130609 0.1065197596 -0.3343261813 0.6972181913
DDDD 5 0.0255054779 0.3412644922 0.0643090380 -0.9374179242
DDDD 6 -0.5677987488 0.6278875448 0.3684625228 -0.3841837857
DDDD 7 0.2810280243 -0.5144669704 0.6720482233 -0.4524358204
DDDD 8 -0.1115318603 -0.5767396994 -0.6579642920 -0.4711846281
DDDD 9 0.5675312485 -0.2984236731 -0.4677103496 -0.6083573145
END
